data/solutions/recovery/degenerate/intermediate/binding/degenerate_intermediate_instance21/12.sol
Elapsed time: 0.03
Upper bound: 31706941.0
Planning weighted value: 1.06243113774e+11
C[0]=31706941.0
C[1]=30976232.0
C[2]=30645868.0
C[3]=29941808.0
C[4]=28467827.0
C[5]=27897547.0
C[6]=26295183.0
C[7]=26144121.0
C[8]=24514085.0
C[9]=24408934.0
C[10]=0.0
C[11]=0.0
y[0]=3
y[1]=0
y[2]=2
y[3]=3
y[4]=8
y[5]=0
y[6]=3
y[7]=3
y[8]=3
y[9]=4
y[10]=3
y[11]=3
y[12]=3
y[13]=7
y[14]=7
y[15]=0
y[16]=4
y[17]=3
y[18]=1
y[19]=5
y[20]=6
y[21]=5
y[22]=0
y[23]=3
y[24]=5
y[25]=4
y[26]=0
y[27]=3
y[28]=4
y[29]=9
y[30]=7
y[31]=8
y[32]=7
y[33]=6
y[34]=6
y[35]=1
y[36]=4
y[37]=4
y[38]=6
y[39]=4
y[40]=3
y[41]=3
y[42]=4
y[43]=4
y[44]=9
y[45]=9
y[46]=3
y[47]=3
y[48]=5
y[49]=8
y[50]=6
y[51]=3
y[52]=9
y[53]=7
y[54]=2
y[55]=9
y[56]=1
y[57]=2
y[58]=7
y[59]=4
y[60]=1
y[61]=2
y[62]=1
y[63]=8
y[64]=5
