data/solutions/recovery/degenerate/intermediate/binding/degenerate_intermediate_instance21/12.log

Log started (V12.6.3.0) Sun Apr 22 12:28:57 2018

New value for default parallel thread count: 1

Problem '/tmp/tmpsrY9CD.pyomo.lp' read.
Read time = 0.01 sec. (0.61 ticks)

Problem name         : /tmp/tmpsrY9CD.pyomo.lp
Objective sense      : Minimize
Variables            :     794  [Nneg: 1,  Binary: 780,  General Integer: 13]
Objective nonzeros   :       1
Linear constraints   :     157  [Less: 77,  Equal: 80]
  Nonzeros           :   43876
  RHS nonzeros       :      66

Variables            : Min LB: 0.000000         Max UB: 1.000000       
Objective nonzeros   : Min   : 1.000000         Max   : 1.000000       
Linear constraints   :
  Nonzeros           : Min   : 1.000000         Max   : 8298339.       
  RHS nonzeros       : Min   : 1.000000         Max   : 1.000000       
Tried aggregator 2 times.
MIP Presolve eliminated 132 rows and 733 columns.
Aggregator did 10 substitutions.
Reduced MIP has 15 rows, 51 columns, and 110 nonzeros.
Reduced MIP has 50 binaries, 1 generals, 0 SOSs, and 0 indicators.
Presolve time = 0.00 sec. (2.95 ticks)
Found incumbent of value 5.7043425e+07 after 0.00 sec. (4.02 ticks)
Probing time = 0.00 sec. (0.05 ticks)
Tried aggregator 1 time.
Reduced MIP has 15 rows, 51 columns, and 110 nonzeros.
Reduced MIP has 50 binaries, 1 generals, 0 SOSs, and 0 indicators.
Presolve time = 0.00 sec. (0.07 ticks)
Probing time = 0.00 sec. (0.05 ticks)
Clique table members: 5.
MIP emphasis: balance optimality and feasibility.
MIP search method: dynamic search.
Parallel mode: none, using 1 thread.
Root relaxation solution time = 0.00 sec. (0.06 ticks)

        Nodes                                         Cuts/
   Node  Left     Objective  IInf  Best Integer    Best Bound    ItCnt     Gap

*     0+    0                       5.70434e+07   2.99418e+07            47.51%
      0     0   2.99418e+07    10   5.70434e+07   2.99418e+07       19   47.51%
*     0+    0                       4.04385e+07   2.99418e+07            25.96%
      0     0   2.99418e+07     7   4.04385e+07       Cuts: 3       23   25.96%
*     0+    0                       3.91582e+07   2.99418e+07            23.54%
      0     0   2.99418e+07     9   3.91582e+07      Fract: 1       29   23.54%
*     0+    0                       3.60795e+07   2.99418e+07            17.01%
      0     0   3.00389e+07    13   3.60795e+07       Cuts: 3       41   16.74%
*     0+    0                       3.43261e+07   3.00389e+07            12.49%
      0     0   3.01428e+07    12   3.43261e+07       Cuts: 3       43   12.19%
*     0+    0                       3.25752e+07   3.01428e+07             7.47%
*     0+    0                       3.24825e+07   3.01428e+07             7.20%
*     0+    0                       3.24700e+07   3.01428e+07             7.17%

Repeating presolve.
Tried aggregator 1 time.
MIP Presolve eliminated 5 rows and 33 columns.
MIP Presolve modified 10 coefficients.
Reduced MIP has 10 rows, 18 columns, and 40 nonzeros.
Reduced MIP has 17 binaries, 1 generals, 0 SOSs, and 0 indicators.
Presolve time = 0.00 sec. (0.06 ticks)
Probing time = 0.00 sec. (0.02 ticks)
Tried aggregator 1 time.
MIP Presolve eliminated 1 rows and 0 columns.
MIP Presolve modified 6 coefficients.
Reduced MIP has 9 rows, 18 columns, and 39 nonzeros.
Reduced MIP has 17 binaries, 1 generals, 0 SOSs, and 0 indicators.
Presolve time = 0.00 sec. (0.04 ticks)
Represolve time = 0.00 sec. (0.23 ticks)
Probing time = 0.00 sec. (0.01 ticks)
Clique table members: 8.
MIP emphasis: balance optimality and feasibility.
MIP search method: dynamic search.
Parallel mode: none, using 1 thread.
Root relaxation solution time = 0.00 sec. (0.03 ticks)

        Nodes                                         Cuts/
   Node  Left     Objective  IInf  Best Integer    Best Bound    ItCnt     Gap

*     0+    0                       3.24700e+07   3.01428e+07             7.17%
      0     0   3.08607e+07     9   3.24700e+07   3.08607e+07       52    4.96%
*     0+    0                       3.17996e+07   3.08607e+07             2.95%
      0     0   3.16368e+07     3   3.17996e+07       Cuts: 5       67    0.51%
      0     0   3.17069e+07     1   3.17996e+07    MIRcuts: 2       68    0.29%
*     0+    0                       3.17069e+07   3.17069e+07             0.00%
      0     0        cutoff         3.17069e+07   3.17069e+07       68    0.00%
Elapsed time = 0.01 sec. (6.13 ticks, tree = 0.01 MB, solutions = 10)

Clique cuts applied:  2
Cover cuts applied:  1
Mixed integer rounding cuts applied:  3

Root node processing (before b&c):
  Real time             =    0.01 sec. (6.20 ticks)
Sequential b&c:
  Real time             =    0.00 sec. (0.00 ticks)
                          ------------
Total (root+branch&cut) =    0.01 sec. (6.20 ticks)

Solution pool: 10 solutions saved.

MIP - Integer optimal solution:  Objective =  3.1706941000e+07
Solution time =    0.01 sec.  Iterations = 68  Nodes = 0
Deterministic time = 6.20 ticks  (663.22 ticks/sec)


Incumbent solution written to file '/tmp/tmpxTrAQv.cplex.sol'.
